NAME : PR123C
TYPE : PDTSP
DIMENSION : 123
EDGE_WEIGHT_TYPE : EUC_2D
NODE_COORD_SECTION
1 4475 8657
2 4475 8969
3 4475 9407
4 4475 9719
5 5450 10475
6 5475 9750
7 5475 8650
8 4575 8425
9 5425 3300
10 5425 3000
11 5425 2400
12 5425 2100
13 5425 1800
14 6000 2375
15 6375 2375
16 6000 3375
17 6375 3375
18 6475 4675
19 6475 4875
20 6475 5275
21 6475 5475
22 6100 6675
23 6350 6675
24 6350 7275
25 6100 7275
26 6550 7625
27 5775 8650
28 6075 8650
29 6375 8650
30 6375 9750
31 6075 9750
32 5775 9750
33 6975 9750
34 6675 9750
35 6675 8650
36 6875 8650
37 6850 7275
38 6600 7275
39 6600 6675
40 6850 6675
41 7100 5425
42 7100 5275
43 7100 5075
44 7100 4875
45 7100 4675
46 6925 3300
47 6925 3000
48 6925 2700
49 6925 2400
50 6925 2100
51 6925 1800
52 7700 3725
53 7850 3700
54 7700 4725
55 8125 7525
56 8500 7475
57 8500 8225
58 7600 9025
59 8350 9025
60 7975 9075
61 8350 9775
62 9375 11225
63 9531 11225
64 9475 10275
65 9275 10050
66 10375 9525
67 9687 11225
68 9843 11225
69 9999 11225
70 10155 11225
71 10311 11225
72 10467 11225
73 10623 11225
74 10779 11225
75 10935 11225
76 11091 11225
77 11247 11225
78 11403 11225
79 11559 11225
80 11175 9800
81 11275 9475
82 10650 9400
83 11275 9175
84 11125 5350
85 11025 4750
86 11000 4600
87 11000 3600
88 11650 3350
89 11725 4825
90 12500 5950
91 11715 11225
92 11871 11225
93 12027 11225
94 12183 11225
95 12339 11225
96 12495 11225
97 12651 11225
98 12807 11225
99 12963 11225
100 13325 6100
101 13100 4625
102 12825 3800
103 12850 2425
104 13585 1975
105 13585 2131
106 13585 2287
107 13585 2443
108 13585 2599
109 13585 2755
110 13585 2911
111 13585 3067
112 13585 3223
113 13585 3379
114 13585 9615
115 13585 9771
116 13585 9927
117 13585 10083
118 13585 10239
119 13585 10395
120 13585 10551
121 13585 10707
122 13585 10863
123 13585 11019
PICKUP_AND_DELIVERY_SECTION
1 0 0 0 0 0 0
2 0 0 0 0 0 80
3 0 0 0 0 109 0
4 0 0 0 0 0 18
5 0 0 0 0 0 70
6 0 0 0 0 0 72
7 0 0 0 0 79 0
8 0 0 0 0 0 90
9 0 0 0 0 84 0
10 0 0 0 0 0 86
11 0 0 0 0 0 61
12 0 0 0 0 0 89
13 0 0 0 0 62 0
14 0 0 0 0 68 0
15 0 0 0 0 0 27
16 0 0 0 0 32 0
17 0 0 0 0 30 0
18 0 0 0 0 4 0
19 0 0 0 0 88 0
20 0 0 0 0 106 0
21 0 0 0 0 0 75
22 0 0 0 0 0 28
23 0 0 0 0 102 0
24 0 0 0 0 0 53
25 0 0 0 0 40 0
26 0 0 0 0 38 0
27 0 0 0 0 15 0
28 0 0 0 0 22 0
29 0 0 0 0 114 0
30 0 0 0 0 0 17
31 0 0 0 0 0 60
32 0 0 0 0 0 16
33 0 0 0 0 39 0
34 0 0 0 0 63 0
35 0 0 0 0 0 51
36 0 0 0 0 0 92
37 0 0 0 0 119 0
38 0 0 0 0 0 26
39 0 0 0 0 0 33
40 0 0 0 0 0 25
41 0 0 0 0 0 116
42 0 0 0 0 0 83
43 0 0 0 0 0 50
44 0 0 0 0 0 81
45 0 0 0 0 71 0
46 0 0 0 0 0 122
47 0 0 0 0 101 0
48 0 0 0 0 0 58
49 0 0 0 0 0 105
50 0 0 0 0 43 0
51 0 0 0 0 35 0
52 0 0 0 0 100 0
53 0 0 0 0 24 0
54 0 0 0 0 0 57
55 0 0 0 0 0 69
56 0 0 0 0 0 103
57 0 0 0 0 54 0
58 0 0 0 0 48 0
59 0 0 0 0 110 0
60 0 0 0 0 31 0
61 0 0 0 0 11 0
62 0 0 0 0 0 13
63 0 0 0 0 0 34
64 0 0 0 0 0 121
65 0 0 0 0 118 0
66 0 0 0 0 74 0
67 0 0 0 0 111 0
68 0 0 0 0 0 14
69 0 0 0 0 55 0
70 0 0 0 0 5 0
71 0 0 0 0 0 45
72 0 0 0 0 6 0
73 0 0 0 0 95 0
74 0 0 0 0 0 66
75 0 0 0 0 21 0
76 0 0 0 0 0 87
77 0 0 0 0 0 85
78 0 0 0 0 0 97
79 0 0 0 0 0 7
80 0 0 0 0 2 0
81 0 0 0 0 44 0
82 0 0 0 0 0 107
83 0 0 0 0 42 0
84 0 0 0 0 0 9
85 0 0 0 0 77 0
86 0 0 0 0 10 0
87 0 0 0 0 76 0
88 0 0 0 0 0 19
89 0 0 0 0 12 0
90 0 0 0 0 8 0
91 0 0 0 0 98 0
92 0 0 0 0 36 0
93 0 0 0 0 0 94
94 0 0 0 0 93 0
95 0 0 0 0 0 73
96 0 0 0 0 0 99
97 0 0 0 0 78 0
98 0 0 0 0 0 91
99 0 0 0 0 96 0
100 0 0 0 0 0 52
101 0 0 0 0 0 47
102 0 0 0 0 0 23
103 0 0 0 0 56 0
104 0 0 0 0 112 0
105 0 0 0 0 49 0
106 0 0 0 0 0 20
107 0 0 0 0 82 0
108 0 0 0 0 0 115
109 0 0 0 0 0 3
110 0 0 0 0 0 59
111 0 0 0 0 0 67
112 0 0 0 0 0 104
113 0 0 0 0 123 0
114 0 0 0 0 0 29
115 0 0 0 0 108 0
116 0 0 0 0 41 0
117 0 0 0 0 0 120
118 0 0 0 0 0 65
119 0 0 0 0 0 37
120 0 0 0 0 117 0
121 0 0 0 0 64 0
122 0 0 0 0 46 0
123 0 0 0 0 0 113
DEPOT_SECTION
1 
-1
EOF
